c FILE: i160-111

c SOURCE: From steinlib

c DESCRIPTION: Steinlib instance with 160 nodes and 812 edges.

p edge 160 812
e 1 10
e 1 11
e 1 15
e 1 48
e 1 51
e 1 88
e 1 103
e 1 110
e 1 135
e 1 149
e 1 158
e 1 159
e 2 7
e 2 31
e 2 56
e 2 61
e 2 71
e 2 73
e 2 94
e 2 100
e 2 116
e 2 130
e 2 131
e 2 136
e 2 145
e 2 148
e 2 152
e 2 153
e 2 155
e 2 159
e 3 46
e 3 59
e 3 67
e 3 83
e 3 130
e 3 133
e 3 160
e 4 11
e 4 12
e 4 39
e 4 50
e 4 71
e 4 80
e 4 83
e 4 141
e 5 33
e 5 53
e 5 80
e 5 88
e 5 100
e 5 123
e 5 142
e 5 150
e 6 8
e 6 10
e 6 66
e 6 83
e 7 11
e 7 25
e 7 35
e 7 37
e 7 64
e 7 73
e 7 84
e 7 88
e 7 97
e 7 99
e 7 131
e 7 141
e 7 151
e 8 19
e 8 30
e 8 54
e 8 55
e 8 57
e 8 74
e 8 104
e 8 117
e 8 134
e 8 152
e 9 15
e 9 16
e 9 23
e 9 50
e 9 55
e 9 106
e 9 128
e 9 131
e 9 143
e 10 57
e 10 71
e 10 76
e 10 122
e 10 139
e 10 144
e 11 22
e 11 67
e 11 74
e 11 75
e 11 80
e 11 81
e 11 88
e 11 91
e 11 93
e 11 99
e 11 125
e 11 150
e 12 16
e 12 39
e 12 97
e 12 145
e 12 147
e 13 20
e 13 41
e 13 103
e 13 140
e 13 144
e 14 16
e 14 47
e 14 81
e 14 96
e 14 102
e 14 107
e 14 120
e 14 132
e 15 16
e 15 37
e 15 44
e 15 46
e 15 55
e 15 83
e 15 91
e 15 113
e 15 131
e 16 43
e 16 61
e 16 75
e 16 81
e 16 109
e 16 137
e 16 138
e 16 144
e 16 152
e 16 153
e 17 27
e 17 77
e 17 94
e 17 126
e 17 134
e 18 23
e 18 74
e 18 111
e 18 123
e 18 126
e 18 127
e 18 129
e 18 130
e 18 137
e 18 146
e 18 152
e 18 155
e 19 20
e 19 25
e 19 59
e 19 135
e 19 140
e 19 147
e 20 22
e 20 24
e 20 36
e 20 53
e 20 61
e 20 103
e 20 111
e 20 113
e 20 133
e 20 137
e 20 155
e 20 160
e 21 71
e 21 76
e 21 88
e 21 90
e 21 97
e 21 133
e 21 148
e 22 40
e 22 59
e 22 61
e 22 80
e 22 113
e 22 116
e 22 135
e 23 30
e 23 34
e 23 47
e 23 50
e 23 51
e 23 62
e 23 96
e 23 98
e 23 113
e 23 118
e 23 139
e 23 141
e 23 159
e 24 41
e 24 42
e 24 53
e 24 63
e 24 70
e 24 79
e 24 90
e 24 100
e 24 108
e 24 110
e 24 121
e 24 136
e 24 140
e 24 143
e 24 144
e 24 147
e 24 153
e 25 26
e 25 27
e 25 30
e 25 31
e 25 46
e 25 71
e 25 92
e 25 105
e 25 131
e 25 147
e 26 29
e 26 89
e 26 102
e 26 124
e 26 132
e 26 133
e 26 141
e 26 154
e 26 157
e 26 158
e 26 159
e 27 44
e 27 89
e 27 116
e 27 135
e 27 140
e 27 141
e 27 156
e 28 43
e 28 62
e 28 76
e 28 78
e 28 84
e 28 90
e 28 95
e 28 124
e 28 140
e 28 141
e 28 149
e 29 85
e 29 91
e 29 100
e 29 123
e 29 144
e 29 151
e 29 152
e 30 37
e 30 41
e 30 55
e 30 83
e 30 93
e 30 96
e 30 98
e 30 108
e 30 114
e 30 121
e 30 155
e 31 113
e 31 131
e 31 147
e 32 46
e 32 53
e 32 66
e 32 78
e 32 93
e 32 95
e 32 96
e 32 138
e 32 154
e 33 39
e 33 43
e 33 75
e 33 94
e 33 123
e 33 136
e 33 144
e 33 148
e 33 149
e 33 153
e 34 56
e 34 83
e 34 112
e 34 113
e 34 150
e 35 37
e 35 39
e 35 40
e 35 43
e 35 45
e 35 52
e 35 82
e 35 98
e 35 126
e 35 142
e 35 154
e 35 157
e 36 39
e 36 74
e 36 87
e 36 102
e 36 117
e 36 122
e 36 147
e 36 148
e 36 156
e 37 42
e 37 48
e 37 56
e 37 57
e 37 62
e 37 79
e 37 106
e 37 119
e 37 141
e 38 40
e 38 46
e 38 58
e 38 73
e 38 83
e 38 92
e 38 111
e 38 132
e 39 44
e 39 54
e 39 75
e 39 108
e 39 112
e 39 132
e 39 136
e 39 153
e 40 47
e 40 51
e 40 93
e 40 109
e 40 126
e 40 143
e 40 145
e 40 157
e 41 45
e 41 54
e 41 65
e 41 73
e 41 87
e 41 117
e 41 119
e 41 133
e 41 150
e 41 155
e 42 68
e 42 81
e 42 94
e 42 97
e 42 105
e 42 114
e 42 136
e 42 143
e 43 56
e 43 75
e 43 89
e 43 103
e 43 105
e 43 155
e 44 72
e 44 124
e 44 152
e 44 157
e 45 62
e 45 77
e 45 104
e 45 105
e 45 123
e 45 126
e 45 129
e 45 130
e 45 144
e 46 68
e 46 87
e 46 101
e 46 107
e 46 111
e 46 129
e 46 137
e 46 140
e 47 66
e 47 71
e 47 120
e 47 131
e 47 137
e 48 95
e 48 113
e 48 125
e 48 154
e 48 160
e 49 98
e 49 123
e 50 71
e 50 125
e 50 128
e 50 153
e 51 71
e 51 142
e 51 147
e 51 152
e 51 156
e 51 159
e 52 55
e 52 56
e 52 67
e 52 80
e 52 86
e 52 152
e 53 57
e 53 60
e 53 67
e 53 72
e 53 76
e 53 81
e 53 97
e 53 104
e 53 138
e 54 55
e 54 60
e 54 64
e 54 116
e 54 119
e 54 146
e 55 57
e 55 60
e 55 61
e 55 63
e 55 67
e 55 73
e 55 116
e 55 131
e 55 150
e 56 68
e 56 75
e 56 76
e 56 96
e 56 99
e 56 105
e 56 118
e 56 125
e 56 131
e 56 151
e 56 154
e 57 59
e 57 65
e 57 80
e 57 88
e 57 116
e 57 121
e 57 137
e 57 144
e 57 148
e 58 60
e 58 78
e 58 91
e 58 136
e 58 140
e 59 69
e 59 71
e 59 72
e 59 97
e 59 109
e 59 120
e 59 122
e 59 153
e 59 156
e 60 74
e 60 86
e 60 109
e 60 114
e 60 124
e 60 130
e 60 135
e 60 137
e 60 139
e 60 156
e 61 74
e 61 83
e 61 104
e 61 142
e 61 146
e 62 83
e 62 160
e 63 68
e 63 91
e 63 93
e 63 111
e 63 123
e 63 159
e 64 72
e 64 83
e 64 85
e 64 87
e 64 97
e 64 103
e 64 113
e 64 119
e 64 134
e 64 149
e 64 158
e 65 80
e 65 94
e 65 96
e 65 109
e 65 124
e 65 125
e 65 147
e 65 151
e 66 85
e 66 93
e 66 104
e 66 146
e 66 148
e 66 150
e 66 155
e 67 69
e 67 88
e 67 129
e 67 136
e 67 138
e 68 71
e 68 88
e 68 89
e 68 91
e 68 93
e 68 132
e 68 144
e 68 148
e 68 158
e 69 75
e 69 90
e 69 129
e 69 143
e 69 144
e 69 147
e 70 72
e 70 90
e 70 105
e 70 125
e 70 152
e 70 156
e 71 74
e 71 86
e 71 94
e 71 130
e 71 140
e 71 150
e 71 152
e 72 79
e 72 131
e 72 133
e 72 139
e 72 145
e 72 160
e 73 77
e 73 95
e 73 96
e 73 110
e 73 155
e 73 157
e 74 97
e 74 106
e 74 118
e 74 126
e 74 134
e 74 149
e 75 100
e 75 123
e 75 156
e 76 89
e 76 97
e 76 112
e 76 133
e 76 149
e 78 85
e 78 103
e 78 125
e 78 130
e 78 131
e 78 148
e 79 124
e 79 134
e 79 142
e 80 84
e 80 85
e 80 86
e 80 113
e 80 144
e 81 92
e 81 137
e 82 101
e 82 114
e 82 120
e 83 86
e 83 87
e 83 107
e 83 108
e 83 120
e 83 133
e 83 141
e 83 160
e 84 94
e 84 101
e 84 115
e 84 146
e 84 149
e 84 155
e 85 99
e 85 118
e 85 126
e 85 130
e 85 145
e 85 147
e 85 151
e 86 89
e 86 113
e 86 127
e 86 135
e 87 88
e 87 90
e 87 92
e 87 110
e 88 91
e 88 106
e 88 107
e 88 111
e 88 112
e 88 120
e 88 129
e 89 91
e 89 115
e 89 124
e 89 142
e 89 145
e 90 121
e 90 148
e 90 150
e 91 106
e 91 133
e 91 137
e 91 142
e 91 160
e 92 93
e 92 130
e 92 135
e 92 146
e 93 104
e 93 108
e 93 110
e 93 123
e 93 128
e 94 103
e 94 104
e 94 121
e 94 126
e 94 128
e 94 160
e 95 103
e 95 134
e 95 137
e 95 140
e 96 100
e 96 125
e 96 134
e 96 135
e 97 98
e 97 112
e 97 125
e 97 128
e 97 131
e 97 147
e 97 155
e 98 101
e 98 102
e 98 103
e 98 159
e 99 116
e 99 131
e 99 137
e 99 140
e 100 104
e 100 110
e 100 114
e 100 125
e 100 139
e 100 153
e 100 158
e 102 106
e 102 116
e 102 123
e 102 135
e 102 137
e 102 148
e 103 112
e 103 147
e 104 116
e 104 138
e 104 140
e 105 117
e 105 129
e 105 130
e 105 132
e 105 147
e 106 113
e 106 135
e 106 138
e 107 114
e 107 122
e 107 128
e 107 138
e 108 134
e 108 149
e 109 138
e 109 152
e 110 125
e 110 140
e 110 149
e 111 121
e 111 135
e 111 142
e 111 158
e 112 114
e 112 116
e 112 129
e 112 133
e 112 136
e 112 142
e 112 145
e 112 153
e 113 158
e 114 121
e 114 132
e 114 141
e 114 149
e 114 155
e 115 132
e 115 137
e 115 141
e 116 121
e 116 127
e 116 146
e 116 151
e 116 152
e 117 127
e 117 134
e 118 158
e 120 136
e 120 144
e 121 123
e 121 142
e 122 124
e 122 138
e 122 142
e 123 137
e 123 138
e 123 142
e 123 160
e 124 132
e 124 142
e 125 158
e 126 136
e 126 137
e 127 144
e 127 151
e 128 131
e 128 157
e 129 143
e 129 154
e 129 155
e 130 135
e 130 138
e 130 152
e 131 147
e 131 151
e 134 155
e 136 143
e 136 152
e 137 145
e 138 156
e 139 142
e 139 145
e 140 144
e 144 147
e 146 158
e 151 158
e 153 160
